NAME : Instance 42
COMMENT : Comment 42
TYPE : TSP
DIMENSION: 30
EDGE_WEIGHT_TYPE : EUC_2D
NODE_COORD_SECTION
  1 1810 695
  2 516 1102
  3 72 1446
  4 29 539
  5 1615 1339
  6 323 738
  7 616 1613
  8 1253 1721
  9 1569 741
  10 445 1592
  11 1102 1614
  12 998 1420
  13 428 163
  14 700 1368
  15 925 1958
  16 1675 1822
  17 37 71
  18 1745 961
  19 1084 611
  20 1714 1202
  21 931 105
  22 922 1360
  23 1328 755
  24 1794 730
  25 130 317
  26 429 46
  27 650 563
  28 1825 644
  29 585 66
  30 1267 1337
EOF
